
Gurobi 9.0.1 (linux64) logging started Thu Apr 30 16:47:27 2020

Gurobi Optimizer version 9.0.1 build v9.0.1rc0 (linux64)
Optimize a model with 12677 rows, 12060 columns and 201690 nonzeros
Model fingerprint: 0x985ff49a
Variable types: 0 continuous, 12060 integer (12032 binary)
Coefficient statistics:
  Matrix range     [1e+00, 1e+01]
  Objective range  [2e+00, 1e+02]
  Bounds range     [1e+00, 1e+00]
  RHS range        [1e+00, 1e+00]

User MIP start produced solution with objective 916 (0.31s)
Loaded user MIP start with objective 916

Presolve removed 3752 rows and 3270 columns
Presolve time: 3.30s
Presolved: 8925 rows, 8790 columns, 167925 nonzeros
Variable types: 0 continuous, 8790 integer (8764 binary)

Root simplex log...

Iteration    Objective       Primal Inf.    Dual Inf.      Time
    2344    4.6543421e+02   1.664816e+03   0.000000e+00      5s
    5709    4.8583049e+02   1.640222e+03   0.000000e+00     10s
    8206    4.8951257e+02   2.104970e+03   0.000000e+00     15s
   10201    4.8991634e+02   0.000000e+00   0.000000e+00     20s

Root relaxation: objective 4.899163e+02, 10201 iterations, 15.84 seconds
Total elapsed time = 20.14s

    Nodes    |    Current Node    |     Objective Bounds      |     Work
 Expl Unexpl |  Obj  Depth IntInf | Incumbent    BestBd   Gap | It/Node Time

     0     0  489.91634    0 2146  916.00000  489.91634  46.5%     -   22s
     0     0  515.54585    0 1938  916.00000  515.54585  43.7%     -   67s
     0     0  515.83433    0 1900  916.00000  515.83433  43.7%     -   75s
     0     0  515.83544    0 1865  916.00000  515.83544  43.7%     -   76s
     0     0  523.64864    0 2021  916.00000  523.64864  42.8%     -  155s
     0     0  524.14491    0 1966  916.00000  524.14491  42.8%     -  183s
     0     0  524.23396    0 1955  916.00000  524.23396  42.8%     -  193s
     0     0  524.24420    0 1926  916.00000  524.24420  42.8%     -  198s
     0     0  524.24425    0 1912  916.00000  524.24425  42.8%     -  199s
     0     0  532.38688    0 2001  916.00000  532.38688  41.9%     -  280s
     0     0  533.21393    0 2041  916.00000  533.21393  41.8%     -  310s
     0     0  533.30260    0 2027  916.00000  533.30260  41.8%     -  318s
     0     0  533.36698    0 2023  916.00000  533.36698  41.8%     -  324s
     0     0  533.38682    0 2031  916.00000  533.38682  41.8%     -  330s
     0     0  533.38836    0 2018  916.00000  533.38836  41.8%     -  332s
     0     0  537.00198    0 2172  916.00000  537.00198  41.4%     -  442s
     0     0  537.73254    0 2155  916.00000  537.73254  41.3%     -  492s
     0     0  537.87944    0 2159  916.00000  537.87944  41.3%     -  507s
     0     0  537.89834    0 2186  916.00000  537.89834  41.3%     -  514s
     0     0  537.90339    0 2178  916.00000  537.90339  41.3%     -  518s
     0     0  538.95484    0 2199  916.00000  538.95484  41.2%     -  595s
     0     0  539.04783    0 2153  916.00000  539.04783  41.2%     -  613s
     0     0  539.08279    0 2174  916.00000  539.08279  41.1%     -  621s
     0     0  539.09140    0 2154  916.00000  539.09140  41.1%     -  625s
     0     0  540.12564    0 2228  916.00000  540.12564  41.0%     -  677s
     0     0  540.40647    0 2188  916.00000  540.40647  41.0%     -  715s
     0     0  540.46701    0 2179  916.00000  540.46701  41.0%     -  729s
     0     0  540.48439    0 2194  916.00000  540.48439  41.0%     -  735s
     0     0  541.14756    0 2215  916.00000  541.14756  40.9%     -  801s
     0     0  541.20209    0 2223  916.00000  541.20209  40.9%     -  814s
     0     0  541.21932    0 2190  916.00000  541.21932  40.9%     -  820s
     0     0  541.47272    0 2213  916.00000  541.47272  40.9%     -  843s
     0     0  541.53437    0 2207  916.00000  541.53437  40.9%     -  857s
     0     0  541.55702    0 2246  916.00000  541.55702  40.9%     -  864s
     0     0  541.69141    0 2218  916.00000  541.69141  40.9%     -  884s
     0     0  541.71519    0 2235  916.00000  541.71519  40.9%     -  894s
     0     0  542.13029    0 2241  916.00000  542.13029  40.8%     -  936s
     0     0  542.18115    0 2269  916.00000  542.18115  40.8%     -  953s
     0     0  542.19618    0 2279  916.00000  542.19618  40.8%     -  960s
     0     0  542.33389    0 2282  916.00000  542.33389  40.8%     -  982s
     0     0  542.33389    0 2281  916.00000  542.33389  40.8%     -  991s
     0     2  542.33572    0 2270  916.00000  542.33572  40.8%     - 1062s
     1     3  542.88536    1 2155  916.00000  542.33572  40.8%  6406 1090s
     2     4  549.48221    1 2025  916.00000  542.88572  40.7% 36031 1394s
     3     5  543.46978    2 2198  916.00000  542.88598  40.7% 26700 1444s
     4     6  560.71955    2 1940  916.00000  543.46978  40.7% 51938 1993s
     5     7  543.77716    3 2193  916.00000  543.46978  40.7% 42445 2013s
     6     8  563.51117    3 1950  916.00000  543.77716  40.6% 47642 2328s
     7     9  545.38445    4 2109  916.00000  543.77716  40.6% 42037 2365s
     8    10  554.62936    4 2109  916.00000  545.39405  40.5% 44604 2678s
     9    11  546.26609    5 2053  916.00000  545.40872  40.5% 40873 2716s
    10    12  575.69812    6 1926  916.00000  545.40872  40.5% 43095 2928s
    11    13  546.47321    6 2047  916.00000  545.40872  40.5% 39632 2943s
    12    14  567.82563    7 2024  916.00000  545.40872  40.5% 40484 3121s
    13    15  547.19613    7 2075  916.00000  545.40872  40.5% 38321 3160s
    14    16  570.77273    8 2129  916.00000  545.40872  40.5% 40374 3376s
    15    17  547.42698    8 2060  916.00000  545.40872  40.5% 37986 3392s
    16    18  549.01738    9 2123  916.00000  545.40872  40.5% 36705 3531s

Cutting planes:
  Gomory: 2
  MIR: 58
  StrongCG: 5
  GUB cover: 2
  Zero half: 51
  Mod-K: 1
  RLT: 1290

Explored 17 nodes (818924 simplex iterations) in 3600.01 seconds
Thread count was 1 (of 40 available processors)

Solution count 1: 916 

Time limit reached
Best objective 9.160000000000e+02, best bound 5.460000000000e+02, gap 40.3930%

User-callback calls 53414, time in user-callback 0.14 sec
